Route #1: 32 25 55 18 50 44 3 51
Route #2: 17 40 12 58 26
Route #3: 9 39 31 10 38
Route #4: 11 59 14 53 7
Route #5: 35 19 54 13 57 15 20 60 37
Route #6: 47 36 21 61 28 62
Route #7: 22 64 42 41 56 24 49
Route #8: 16 63 23 43 1 33 6
Route #9: 2 30 48 5 29 45
Route #10: 34 46 8 52 27 4
Cost 838